POSCAR by Celeste
1.0
  2.815  -0.627  -0.000
  0.000   6.142   0.000
  0.000   0.000  25.013
CU O 
10 10 
Selective
Direct
  0.543   0.130   0.188 F F F
  0.792   0.876   0.465 T T T
  0.127   0.381   0.095 F F F
  0.959   0.878   0.280 T T T
  0.376   0.127   0.373 T T T
  0.127   0.881   0.095 F F F
  0.959   0.378   0.280 T T T
  0.376   0.627   0.373 T T T
  0.543   0.630   0.188 F F F
  0.792   0.376   0.465 T T T
  0.530   0.672   0.111 F F F
  0.779   0.418   0.388 T T T
  0.195   0.667   0.480 T T T
  0.946   0.921   0.203 F F F
  0.362   0.170   0.295 T T T
  0.723   0.090   0.080 F F F
  0.140   0.338   0.172 F F F
  0.972   0.836   0.357 T T T
  0.389   0.084   0.450 T T T
  0.556   0.587   0.265 T T T
