generated by phonopy
   1.0
    27.4718235494797050  -15.8608647214219953    0.0000000000000000
     0.0000000000000000   31.7217294428441008    0.0000000000000000
     0.0000000000000000    0.0000000000000000   30.0000000000000000
S Mo 
 200  100  
Direct
  0.0297496670177771  0.9645772541980590  0.7214689925327231
  0.0299013098880751  0.8648815563590613  0.7207541049633706
  0.0300918613880473  0.7650564714876052  0.7196042287814408
  0.0302205243262377  0.6650137509378232  0.7184426527554424
  0.0302529325468010  0.5647969268514793  0.7177568838848345
  0.0302521168832859  0.4645332779212358  0.7177931920467856
  0.0302131884844776  0.3642881711379014  0.7185393085793487
  0.0300753282686048  0.2641287653258705  0.7197226137165244
  0.0298844425740519  0.1641300458633188  0.7208465013822974
  0.0297417761986467  0.0642965920945558  0.7215043954189373
  0.1294980269869071  0.9644472873510475  0.7211405394922161
  0.1297336468781197  0.8646632331770832  0.7207269373410039
  0.1299902259139391  0.7647949719111801  0.7201721401714148
  0.1301713016210615  0.6647911163554441  0.7196924934041939
  0.1302346837932317  0.5646611406902762  0.7195084153239721
  0.1301597173975484  0.4644645900219866  0.7197293759672365
  0.1299684374660041  0.3642828975969091  0.7202274220147029
  0.1297097196055784  0.2641674276652493  0.7207760509908859
  0.1294819128932992  0.1641580161713413  0.7211680743998035
  0.1293934038552863  0.0642561716111444  0.7212958484181681
  0.2292762863417332  0.9642182194831110  0.7204526328122676
  0.2295654317412913  0.8643750833443902  0.7206259766836197
  0.2298369925745656  0.7645045997592983  0.7207316513607331
  0.2299973765976150  0.6645653560788256  0.7207633801131875
  0.2299891770760567  0.5645278250995400  0.7207633990752322
  0.2298157423014373  0.4644227413762272  0.7207267940570941
  0.2295377714026191  0.3642795068533559  0.7206134171319030
  0.2292525221045642  0.2641505744224045  0.7204366670898377
  0.2290787730426398  0.1640840779111971  0.7202923085903535
  0.2290873615444461  0.0641050352434089  0.7203003531508714
  0.3291934297199028  0.9639979154965264  0.7196257663015045
  0.3294688962547835  0.8641306191948460  0.7204767774977784
  0.3296914282853891  0.7642988936701701  0.7210878979090626
  0.3297727767339572  0.6644431373972189  0.7212928502893525
  0.3296757346711972  0.5644957965758701  0.7210470198861390
  0.3294439100294059  0.4644310379425333  0.7204046214049519
  0.3291681090485382  0.3642811605049259  0.7195468428503842
  0.3289614543675017  0.2641084411350006  0.7188228357555068
  0.3288975605091509  0.1639971907151448  0.7185565054785545
  0.3289758161892187  0.0639571602427341  0.7188756497664320
  0.4292842087023492  0.9638755443056088  0.7190086398290605
  0.4294833069462378  0.8640069630348171  0.7203715895997562
  0.4296174373686064  0.7642529018416020  0.7211639061254917
  0.4296099450105580  0.6644843516855994  0.7211232735362588
  0.4294658952696513  0.5645811792007295  0.7202617978787695
  0.4292652592195513  0.4644963024805143  0.7188693855857236
  0.4291049037190430  0.3642957263202655  0.7174775310487861
  0.4290390175163410  0.2641232152644252  0.7166490764168030
  0.4290422421735933  0.1640095249365986  0.7166911739220305
  0.4291158383814888  0.0639047704651071  0.7175904918009651
  0.5294810568131796  0.9638505669197089  0.7188634819827190
  0.5295947754640946  0.8640504019476732  0.7204091412729958
  0.5296336865869065  0.7643833709697554  0.7209476728639138
  0.5295862735030549  0.6646656208147068  0.7203000250334580
  0.5294696047304949  0.5647268256036572  0.7186872611014226
  0.5293791399661454  0.4645587152510005  0.7167709236023669
  0.5293580603281373  0.3643502835514951  0.7153641245860898
  0.5293564608847402  0.2642245576894659  0.7148830678970086
  0.5293588479134615  0.1640949190050131  0.7154599324580122
  0.5293843687910537  0.0639071863768839  0.7169379223470083
  0.6297092589009365  0.9639188292303855  0.7192532661563444
  0.6297440265991745  0.8642387598613724  0.7205426481315353
  0.6297425606214049  0.7646428105644019  0.7204745465086424
  0.6297046351337755  0.6649051307324455  0.7190769020824076
  0.6296592698556149  0.5648420355762329  0.7169508707812743
  0.6296214108917896  0.4645806051535342  0.7150444756384087
  0.6296053766663432  0.3644040098144106  0.7140126984179562
  0.6296060977417042  0.2642929159210088  0.7140619985573244
  0.6296239343131638  0.1641224604536199  0.7151912939787054
  0.6296639661743447  0.0639061616809350  0.7171547513011315
  0.7298983510504269  0.9640997679288896  0.7200148322710982
  0.7298876055185067  0.8645162227641086  0.7206756788884152
  0.7298994459999320  0.7649325678357691  0.7198798365104857
  0.7299025020049109  0.6650880753005892  0.7179371159787056
  0.7298522529492589  0.5648811365012698  0.7157555879935198
  0.7297729361756216  0.4645870010216672  0.7142237437111175
  0.7297439249508664  0.3644170193779954  0.7137362677149022
  0.7297787307688491  0.2642724878639697  0.7143242241933192
  0.7298600886450755  0.1640530154852092  0.7159417409372932
  0.7299038972187426  0.0639175322261882  0.7181475659021467
  0.8299743186883003  0.9643329301314482  0.7208078302183311
  0.8299775640681986  0.8647845330300075  0.7207424572055792
  0.8300399791019071  0.7651392911841104  0.7194010172629396
  0.8300568201227694  0.6651609095847134  0.7173490825423000
  0.8299719829112623  0.5648827099180100  0.7154936242438454
  0.8298821672957921  0.4645836532290071  0.7144899317939628
  0.8298870854279491  0.3643826777537663  0.7145401428797225
  0.8299827836527626  0.2641712411904424  0.7156372885861516
  0.8300601577711102  0.1639879470850001  0.7175482604607337
  0.8300334033145731  0.0640202511862488  0.7195723070721333
  0.9299197173937526  0.9645296800254927  0.7213488980982835
  0.9299883129917277  0.8649307253406948  0.7207533078628161
  0.9301098163563980  0.7651859304640638  0.7192881983024505
  0.9301595391160676  0.6651417695035464  0.7175423727644782
  0.9301096560741365  0.5648688002952167  0.7162386856944110
  0.9300771458338916  0.4645775852201210  0.7157890620188875
  0.9301159008562927  0.3643214685089899  0.7163283128042109
  0.9301600842551970  0.2641053999164420  0.7176986705913914
  0.9301000640030469  0.1640310047915016  0.7194512492114244
  0.9299776772961699  0.0641863981776437  0.7208540491345380
  0.0296460683652784  0.9642302908866881  0.8260420338980803
  0.0293303617577608  0.8638444067602009  0.8253125631119778
  0.0288284123488977  0.7634970412523896  0.8241490157719046
  0.0283570749806747  0.6633548656310142  0.8230101611447583
  0.0280934683464389  0.5634655834125086  0.8223309196445157
  0.0281070991608505  0.4637639551358393  0.8223667607758712
  0.0283942618539207  0.3641397856902930  0.8231048414952926
  0.0288777063577120  0.2644572833918551  0.8242665641113345
  0.0293713196749681  0.1645906771918171  0.8254059301590901
  0.0296606752762963  0.0645006995892184  0.8260783846904571
  0.1298825771763011  0.9644660848377227  0.8256917669511730
  0.1294409214707274  0.8642022263428277  0.8252488440341031
  0.1288943156619548  0.7639042676278327  0.8246561018013566
  0.1284538745597792  0.6637071655912405  0.8241594057937189
  0.1283018185388924  0.5637066663303307  0.8239844836964726
  0.1284849309278190  0.4638716290132217  0.8241969022286809
  0.1289449140630547  0.3641180230747643  0.8247133866713029
  0.1294904862220259  0.2643618219212662  0.8253013770895365
  0.1299117867371088  0.1645305821184631  0.8257217890381140
  0.1300571419116748  0.0645797730389318  0.8258644996580411
  0.2302058085007921  0.9649447888653575  0.8249706454063289
  0.2297129519420885  0.8647207006143917  0.8250993025512252
  0.2292178600910487  0.7643804537535405  0.8251768141185500
  0.2289080941364602  0.6640750296637535  0.8251906639923692
  0.2289243359989708  0.5639304776428989  0.8251908536661896
  0.2292600996726173  0.4639491603255748  0.8251738370382496
  0.2297636651308519  0.3641161034882350  0.8250909706495871
  0.2302436853307488  0.2643918523917733  0.8249598842003891
  0.2305104124989069  0.1647000427728554  0.8248613542789530
  0.2304957038331069  0.0649269923594916  0.8248671137776858
  0.3304713018383058  0.9654823523539213  0.8241316081253403
  0.3300279659630707  0.8652130819702535  0.8249207609360951
  0.3296487194711787  0.7647465390370479  0.8255087736180268
  0.3295045743769903  0.6642854902874205  0.8257106001410154
  0.3296764518570324  0.5639868856132743  0.8254679514198779
  0.3300715364324540  0.4639237865955877  0.8248520425584445
  0.3305097614963344  0.3641211368115388  0.8240599964270049
  0.3308273272674191  0.2645403955389276  0.8234008697573661
  0.3309356079411782  0.1650418613911856  0.8231623550845691
  0.3308058049804778  0.0654145804650668  0.8234462785293037
  0.4305576437279698  0.9658637292459631  0.8235064850422289
  0.4302224065784400  0.8654680604863950  0.8248137222715229
  0.4299940976777185  0.7648332296408391  0.8255803853985177
  0.4300067465715517  0.6642144919227656  0.8255394777431128
  0.4302527500940151  0.5638355492751386  0.8247075633579408
  0.4305886029602486  0.4638120411656240  0.8233770729606079
  0.4308611652178886  0.3641659162140611  0.8220848972087572
  0.4309964195960976  0.2647617290793278  0.8213400412072808
  0.4309906818959686  0.1653920738813697  0.8213776904617763
  0.4308409656830156  0.0658254164027684  0.8221875823430235
  0.5304406195632015  0.9659475762966695  0.8233613074483644
  0.5302453972852652  0.8653862054925799  0.8248444571612112
  0.5301696517302869  0.7645984444834220  0.8253786184050297
  0.5302615954630212  0.6639092161857185  0.8247379016159010
  0.5304588633735535  0.5635844848857785  0.8231954792370666
  0.5306162303299378  0.4637337390057296  0.8214156718961751
  0.5306965859135260  0.3642507234885197  0.8201010735165883
  0.5307210896866210  0.2649442470659484  0.8196624100846096
  0.5306921139237667  0.1656027858643770  0.8201886021911802
  0.5306044850094555  0.0660068375720509  0.8215706829080260
  0.6301798735388885  0.9657134713250398  0.8237564019870107
  0.6301250801232748  0.8649948702818391  0.8249982688030953
  0.6301293012744607  0.7641565752725858  0.8249323609926312
  0.6301855829184493  0.6635276630496248  0.8235888991336524
  0.6302162007113251  0.5633753106949264  0.8215706380567445
  0.6301986589835672  0.4637081206590192  0.8197967004016443
  0.6301735236802996  0.3643204361992964  0.8188561741931800
  0.6301743994133087  0.2650189978039505  0.8189025970857947
  0.6302017078114076  0.1656424946147741  0.8199320287290938
  0.6302157429349324  0.0659533283068094  0.8217619004007913
  0.7298824046356877  0.9652345555357993  0.8245216367903233
  0.7299051232454229  0.8644643287127972  0.8251778199911646
  0.7298777921077695  0.7636858555010866  0.8243921811318636
  0.7297845356405517  0.6632282717539685  0.8225397152619830
  0.7296446833797654  0.5632665898414769  0.8204832325538333
  0.7295351019981996  0.4637012137730954  0.8190505528501743
  0.7295036565535313  0.3643338012552579  0.8186014157152151
  0.7295414542084177  0.2649950407822709  0.8191440301388703
  0.7296575636934994  0.1655189795154023  0.8206585903610363
  0.7297952963097092  0.0656494325304805  0.8227375325802123
  0.8296588929980583  0.9646936085183319  0.8253479281061044
  0.8296496722428602  0.8639991344742677  0.8252842580614593
  0.8294775172996732  0.7633787208263950  0.8239814138901176
  0.8292002809268234  0.6630910936307187  0.8220051097162443
  0.8289583757747480  0.5632454435346218  0.8202453863611490
  0.8288383095041494  0.4637048272850082  0.8192931259895776
  0.8288433639159459  0.3642915945660384  0.8193403578340424
  0.8289754446951508  0.2648636171820584  0.8203823028912391
  0.8292263405408890  0.1652317610295749  0.8221944121288379
  0.8294990039680646  0.0651756478505175  0.8241455487393674
  0.9295761592078909  0.9643157764262364  0.8259167630105184
  0.9294243339496496  0.8637696847851034  0.8253221383620420
  0.9290650048612368  0.7633117894969594  0.8238846844564071
  0.9286515957907463  0.6631369850171380  0.8221857082757519
  0.9283679804983571  0.5633083008871109  0.8209156141476005
  0.9282862018798627  0.4637168852213279  0.8205003673394661
  0.9283857225288080  0.3642104914330134  0.8210026844541823
  0.9286862125044586  0.2646534391867755  0.8223370413976305
  0.9291044584842235  0.1648630516593363  0.8240425467702266
  0.9294493093976006  0.0647317636045153  0.8254217647723954
  0.0629979756535191  0.9310682704462730  0.7735833249239495
  0.0628716168106467  0.8310081264105957  0.7727676673073910
  0.0627087084875867  0.7309169871771938  0.7717305081125853
  0.0625696028815580  0.6308344827803345  0.7708794700841247
  0.0625039918297886  0.5308034699316297  0.7705730811149580
  0.0625806994016050  0.4308425357365478  0.7709407009246071
  0.0627249926737105  0.3309011667373961  0.7718284666872516
  0.0628868006948812  0.2309726092762401  0.7728619069411111
  0.0630058721220369  0.1310369486562877  0.7736392840332470
  0.0630432909029829  0.0310741857595517  0.7739039438151689
  0.1630100084789251  0.9311618677912883  0.7732036412926454
  0.1628858830562751  0.8311026608775915  0.7728931224797697
  0.1627475123516936  0.7310035154954524  0.7725306258682082
  0.1626643346227470  0.6309097613726247  0.7722942526094159
  0.1626689623491517  0.5308553639236069  0.7723079846441340
  0.1627596158925345  0.4308491567413786  0.7725640189313224
  0.1628998653820620  0.3308915855822293  0.7729289249349828
  0.1630193642045158  0.2309595908354646  0.7732278430129577
  0.1630784243577617  0.1310545122673225  0.7733654031136769
  0.1630747732786416  0.0311339459846903  0.7733573605428012
  0.2630807325321088  0.9312976419604712  0.7726048053692475
  0.2629733368963461  0.8312224928190824  0.7729687350722478
  0.2628835235738496  0.7310904455637180  0.7732225228203087
  0.2628465632774650  0.6309698454425113  0.7733039279910547
  0.2628902936618889  0.5308900838435523  0.7732072531725284
  0.2629849955531925  0.4308534987592880  0.7729397107102363
  0.2630901524451550  0.3308918213841575  0.7725701254053282
  0.2631655265322516  0.2310076966474504  0.7722296144807096
  0.2631917005455326  0.1311548681672240  0.7720946467339085
  0.2631604400687139  0.0312690757449596  0.7722540999647113
  0.3631822653457438  0.9314371696818540  0.7720076976884978
  0.3630932234257090  0.8313126122728591  0.7729892378314942
  0.3630384129189195  0.7311426903647953  0.7735582755081903
  0.3630416287810744  0.6309855648478877  0.7735295458533240
  0.3631012740688214  0.5308758665552765  0.7729112798489923
  0.3631906933923306  0.4308488531678789  0.7719075859059503
  0.3632682013807778  0.3309192844200795  0.7708939178837062
  0.3632979725188183  0.2311002108288313  0.7702924285488717
  0.3632963729581353  0.1313203304759655  0.7703242705847499
  0.3632627317079225  0.0314595095718786  0.7709764973249483
  0.4632592422957464  0.9315272020483183  0.7716828204608631
  0.4631946004317349  0.8313359790875470  0.7729867468681606
  0.4631689714472045  0.7311263492694032  0.7734453154013694
  0.4632001557886884  0.6309468167854572  0.7728950146873268
  0.4632654802303757  0.5308284121463833  0.7715345184106647
  0.4633171916694009  0.4308365476972884  0.7699151600190025
  0.4633526747097734  0.3309970194065291  0.7686942124969672
  0.4633737369706772  0.2312513104380536  0.7682760222630489
  0.4633510643927166  0.1314777647228339  0.7687783142973602
  0.4633126884664454  0.0315868533086446  0.7700584959446118
  0.5632761803393153  0.9314914245761312  0.7717907876893598
  0.5632542336973466  0.8312806485684445  0.7729780295823598
  0.5632567489512006  0.7310550961523558  0.7729155292663569
  0.5632796710992607  0.6308724316470887  0.7716286223782922
  0.5633123934535836  0.5307939669773191  0.7696632958153520
  0.5633186446240706  0.4308600660009541  0.7678946565199274
  0.5633124321724946  0.3310803271504618  0.7669431746777404
  0.5633121093149555  0.2313587068000936  0.7669903286484707
  0.5633187582750543  0.1315755454466704  0.7680312658030580
  0.5633112344548578  0.0316186724425512  0.7698515712592718
  0.6632591549563942  0.9313806495478204  0.7722731989933450
  0.6632532652045363  0.8311668729543465  0.7729355302972092
  0.6632599878848821  0.7309621916196916  0.7721398210522107
  0.6632504996479067  0.6308023046616523  0.7702213200022358
  0.6631958549890095  0.5307728690785714  0.7680953430336125
  0.6631546856849773  0.4308940387176890  0.7666240466470519
  0.6631336796073284  0.3311303164245015  0.7661554531363723
  0.6631583195386253  0.2313844343553509  0.7667199029683965
  0.6632021011736541  0.1315351330446377  0.7682762617326273
  0.6632523222478289  0.0315435379660185  0.7704264998029333
  0.7632024873418480  0.9312330590830122  0.7728982777811170
  0.7632003598970382  0.8310538474197348  0.7728278372635224
  0.7631561762098614  0.7308859468592019  0.7713934088501799
  0.7630778115337276  0.6307722653958968  0.7692470210671419
  0.7629533052147391  0.5307531359976756  0.7673500963199920
  0.7628876151691811  0.4308996717004616  0.7663589787097067
  0.7628903325248650  0.3311111368246558  0.7664074893494539
  0.7629632216446619  0.2313190678908955  0.7674927979343887
  0.7630881874783553  0.1314129864067628  0.7694523125944944
  0.7631610042464032  0.0313639511136071  0.7715745777141728
  0.8631223261159925  0.9311066262544100  0.7734103797894443
  0.8630879122883417  0.8309865629995503  0.7726999568663901
  0.8629792560640824  0.7308481621178332  0.7709949453599484
  0.8628224590450151  0.6307635888403613  0.7690278144990634
  0.8626956635043784  0.5307650499724855  0.7675904776941874
  0.8626338754729055  0.4308754374899263  0.7671159768695290
  0.8627054757774891  0.3310482474215592  0.7676859835270837
  0.8628375004133505  0.2311725324023158  0.7692004104552440
  0.8629919236264337  0.1312358574018365  0.7711823072903159
  0.8630947773225885  0.0311981083909136  0.7728188365373084
  0.9630450531953342  0.9310499206009181  0.7736533999318458
  0.9629590780523876  0.8309713669824357  0.7726703620045169
  0.9628036062262493  0.7308620683483654  0.7711312132295558
  0.9626143077161330  0.6307776795964287  0.7696304153709359
  0.9625193908744863  0.5307848394949899  0.7687695515098062
  0.9625252156741912  0.4308467140009987  0.7688134716541368
  0.9626293749752834  0.3309508811310181  0.7697512005699275
  0.9628205609258762  0.2310526217320857  0.7712867482221014
  0.9629717483822288  0.1310940467075669  0.7727969290686154
  0.9630489849029520  0.0310961576799919  0.7737014488092266
