generated by phonopy
   1.0
    27.4714516410673042  -15.8606499999999890    0.0000000000000020
     0.0000000000000020   31.7212999999999923    0.0000000000000020
     0.0000000000000000    0.0000000000000000   17.9999999999999964
S Mo
 200  100
Direct
  0.0339579999999997  0.8677343333333338  0.8741180000000000
  0.0348899999999997  0.7679316666666669  0.8711941666666669
  0.0356006666666665  0.6679026666666670  0.8696946666666669
  0.0361329999999997  0.5680063333333335  0.8693408333333333
  0.1350233333333331  0.7667453333333331  0.8746963333333333
  0.1359719999999998  0.6673819999999997  0.8762351666666667
  0.2350473333333330  0.6668819999999994  0.8826386666666669
  0.2313076666666659  0.1660969999999997  0.8695166666666670
  0.3315019999999996  0.2667886666666666  0.8656493333333337
  0.4318283333333331  0.3674861666666664  0.8635173333333334
  0.4317734999999996  0.2664553333333329  0.8601390000000005
  0.5327669999999997  0.3670269999999999  0.8592246666666669
  0.0326789999999996  0.8655776666666667  0.0545446666666667
  0.0317529999999997  0.7653571666666671  0.0516166666666669
  0.0310066666666664  0.6654163333333337  0.0500466666666668
  0.0306073333333330  0.5653483333333333  0.0496296666666671
  0.1316175000000001  0.7665328333333337  0.0550486666666667
  0.1305688333333332  0.6658585000000005  0.0564646666666667
  0.2315496666666663  0.6664160000000005  0.0629773333333334
  0.2353961666666662  0.1672841666666666  0.0499050000000001
  0.3350949999999996  0.2665499999999996  0.0459723333333335
  0.4347386666666663  0.3659426666666666  0.0438443333333335
  0.4346386666666661  0.2668449999999997  0.0405180000000002
  0.5337616666666664  0.3663846666666664  0.0396343333333334
  0.1322656666666661  0.1662236666666659  0.8741180000000000
  0.2320683333333331  0.2669583333333329  0.8711941666666668
  0.3320973333333330  0.3676979999999995  0.8696946666666671
  0.4319936666666665  0.4681266666666662  0.8693408333333333
  0.2332546666666668  0.3682780000000000  0.8746963333333332
  0.3326180000000002  0.4685900000000001  0.8762351666666668
  0.3331180000000004  0.5681653333333334  0.8826386666666670
  0.8339030000000003  0.0652106666666662  0.8695166666666670
  0.7332113333333334  0.0647133333333330  0.8656493333333337
  0.6325138333333333  0.0643421666666666  0.8635173333333334
  0.7335446666666672  0.1653181666666666  0.8601390000000005
  0.6329730000000001  0.1657399999999998  0.8592246666666669
  0.1344223333333332  0.1671013333333329  0.0545446666666667
  0.2346428333333328  0.2663958333333326  0.0516166666666669
  0.3345836666666663  0.3655903333333327  0.0500466666666668
  0.4346516666666667  0.4652589999999996  0.0496296666666671
  0.2334671666666662  0.3650846666666664  0.0550486666666667
  0.3341414999999996  0.4647103333333329  0.0564646666666667
  0.3335839999999997  0.5651336666666660  0.0629773333333334
  0.8327158333333334  0.0681119999999996  0.0499050000000001
  0.7334500000000004  0.0685449999999999  0.0459723333333335
  0.6340573333333335  0.0687959999999997  0.0438443333333335
  0.7331550000000002  0.1677936666666664  0.0405180000000002
  0.6336153333333334  0.1673769999999999  0.0396343333333334
  0.8337763333333342  0.9660420000000005  0.8741180000000000
  0.7330416666666673  0.9651100000000004  0.8711941666666669
  0.6323020000000005  0.9643993333333336  0.8696946666666669
  0.5318733333333336  0.9638670000000003  0.8693408333333333
  0.6317220000000001  0.8649766666666669  0.8746963333333333
  0.5314100000000000  0.8640280000000005  0.8762351666666668
  0.4318346666666666  0.7649526666666671  0.8826386666666670
  0.9347893333333338  0.7686923333333341  0.8695166666666670
  0.9352866666666669  0.6684980000000003  0.8656493333333337
  0.9356578333333334  0.5681716666666670  0.8635173333333332
  0.8346818333333332  0.5682265000000005  0.8601390000000005
  0.8342600000000002  0.4672330000000003  0.8592246666666669
  0.8328986666666672  0.9673210000000005  0.0545446666666667
  0.7336041666666675  0.9682470000000004  0.0516166666666669
  0.6344096666666674  0.9689933333333337  0.0500466666666668
  0.5347410000000002  0.9693926666666670  0.0496296666666671
  0.6349153333333337  0.8683825000000001  0.0550486666666667
  0.5352896666666672  0.8694311666666669  0.0564646666666667
  0.4348663333333340  0.7684503333333337  0.0629773333333334
  0.9318880000000004  0.7646038333333338  0.0499050000000001
  0.9314550000000001  0.6649050000000005  0.0459723333333335
  0.9312040000000003  0.5652613333333337  0.0438443333333335
  0.8322063333333336  0.5653613333333338  0.0405180000000002
  0.8326230000000000  0.4662383333333336  0.0396343333333334
  0.1322656666666661  0.9660420000000003  0.8741180000000000
  0.2320683333333331  0.9651100000000004  0.8711941666666669
  0.3320973333333330  0.9643993333333335  0.8696946666666671
  0.4319936666666665  0.9638670000000003  0.8693408333333333
  0.2332546666666668  0.8649766666666669  0.8746963333333333
  0.3326180000000002  0.8640280000000002  0.8762351666666668
  0.3331180000000004  0.7649526666666668  0.8826386666666670
  0.8339030000000003  0.7686923333333341  0.8695166666666670
  0.7332113333333334  0.6684980000000005  0.8656493333333337
  0.6325138333333333  0.5681716666666667  0.8635173333333334
  0.7335446666666672  0.5682265000000004  0.8601390000000005
  0.6329730000000001  0.4672330000000003  0.8592246666666669
  0.1344223333333332  0.9673210000000003  0.0545446666666667
  0.2346428333333328  0.9682470000000003  0.0516166666666669
  0.3345836666666663  0.9689933333333336  0.0500466666666668
  0.4346516666666667  0.9693926666666669  0.0496296666666671
  0.2334671666666662  0.8683824999999998  0.0550486666666667
  0.3341414999999996  0.8694311666666668  0.0564646666666667
  0.3335839999999997  0.7684503333333337  0.0629773333333334
  0.8327158333333334  0.7646038333333338  0.0499050000000001
  0.7334500000000004  0.6649050000000004  0.0459723333333335
  0.6340573333333335  0.5652613333333337  0.0438443333333335
  0.7331550000000002  0.5653613333333338  0.0405180000000002
  0.6336153333333334  0.4662383333333336  0.0396343333333334
  0.8337763333333342  0.8677343333333339  0.8741180000000000
  0.7330416666666673  0.7679316666666670  0.8711941666666669
  0.6323020000000005  0.6679026666666671  0.8696946666666669
  0.5318733333333336  0.5680063333333335  0.8693408333333333
  0.6317220000000001  0.7667453333333332  0.8746963333333334
  0.5314100000000000  0.6673819999999998  0.8762351666666667
  0.4318346666666666  0.6668819999999996  0.8826386666666669
  0.9347893333333338  0.1660969999999997  0.8695166666666670
  0.9352866666666669  0.2667886666666666  0.8656493333333337
  0.9356578333333334  0.3674861666666665  0.8635173333333334
  0.8346818333333332  0.2664553333333328  0.8601390000000005
  0.8342600000000002  0.3670269999999998  0.8592246666666669
  0.8328986666666672  0.8655776666666669  0.0545446666666667
  0.7336041666666675  0.7653571666666672  0.0516166666666669
  0.6344096666666674  0.6654163333333338  0.0500466666666668
  0.5347410000000002  0.5653483333333335  0.0496296666666671
  0.6349153333333337  0.7665328333333338  0.0550486666666667
  0.5352896666666672  0.6658585000000005  0.0564646666666667
  0.4348663333333340  0.6664160000000003  0.0629773333333334
  0.9318880000000004  0.1672841666666666  0.0499050000000001
  0.9314550000000001  0.2665499999999997  0.0459723333333335
  0.9312040000000003  0.3659426666666665  0.0438443333333335
  0.8322063333333336  0.2668449999999997  0.0405180000000002
  0.8326230000000000  0.3663846666666663  0.0396343333333334
  0.0339579999999997  0.1662236666666659  0.8741180000000000
  0.0348899999999997  0.2669583333333329  0.8711941666666669
  0.0356006666666665  0.3676979999999996  0.8696946666666671
  0.0361329999999997  0.4681266666666662  0.8693408333333332
  0.1350233333333331  0.3682780000000002  0.8746963333333332
  0.1359719999999998  0.4685900000000002  0.8762351666666668
  0.2350473333333330  0.5681653333333336  0.8826386666666670
  0.2313076666666659  0.0652106666666662  0.8695166666666670
  0.3315019999999996  0.0647133333333331  0.8656493333333337
  0.4318283333333331  0.0643421666666667  0.8635173333333334
  0.4317734999999996  0.1653181666666667  0.8601390000000005
  0.5327669999999997  0.1657399999999999  0.8592246666666669
  0.0326789999999996  0.1671013333333330  0.0545446666666667
  0.0317529999999997  0.2663958333333326  0.0516166666666669
  0.0310066666666664  0.3655903333333327  0.0500466666666668
  0.0306073333333330  0.4652589999999999  0.0496296666666671
  0.1316175000000001  0.3650846666666665  0.0550486666666667
  0.1305688333333332  0.4647103333333329  0.0564646666666667
  0.2315496666666663  0.5651336666666660  0.0629773333333334
  0.2353961666666662  0.0681119999999996  0.0499050000000001
  0.3350949999999996  0.0685449999999999  0.0459723333333335
  0.4347386666666663  0.0687959999999997  0.0438443333333335
  0.4346386666666661  0.1677936666666664  0.0405180000000002
  0.5337616666666664  0.1673770000000000  0.0396343333333334
  0.0330869999999998  0.9669130000000006  0.8768603333333335
  0.1336179999999999  0.8663820000000003  0.8738629999999998
  0.2343946666666666  0.7656053333333336  0.8793769999999997
  0.5322333333333331  0.4677666666666668  0.8631023333333336
  0.6333243333333330  0.3666756666666668  0.8583210000000001
  0.0335866666666664  0.9664133333333340  0.0572956666666668
  0.1330369999999999  0.8669630000000004  0.0542766666666668
  0.2322813333333334  0.7677186666666670  0.0596970000000002
  0.5343084999999999  0.4656915000000002  0.0434176666666666
  0.6333173333333335  0.3666826666666665  0.0387136666666666
  0.0330869999999993  0.0661739999999992  0.8768603333333336
  0.1336179999999997  0.2672359999999997  0.8738629999999997
  0.2343946666666664  0.4687893333333329  0.8793769999999997
  0.5322333333333332  0.0644666666666663  0.8631023333333336
  0.6333243333333332  0.2666486666666663  0.8583210000000001
  0.0335866666666660  0.0671733333333323  0.0572956666666668
  0.1330369999999995  0.2660739999999995  0.0542766666666668
  0.2322813333333331  0.4645626666666665  0.0596970000000001
  0.5343084999999996  0.0686169999999995  0.0434176666666666
  0.6333173333333335  0.2666346666666669  0.0387136666666666
  0.9338260000000009  0.9669130000000004  0.8768603333333335
  0.7327640000000005  0.8663820000000002  0.8738629999999998
  0.5312106666666669  0.7656053333333335  0.8793769999999997
  0.9355333333333335  0.4677666666666669  0.8631023333333336
  0.7333513333333337  0.3666756666666671  0.8583210000000001
  0.9328266666666677  0.9664133333333337  0.0572956666666668
  0.7339260000000007  0.8669630000000003  0.0542766666666668
  0.5354373333333335  0.7677186666666667  0.0596970000000001
  0.9313830000000004  0.4656915000000003  0.0434176666666666
  0.7333653333333330  0.3666826666666666  0.0387136666666666
  0.1363399999999997  0.5681699999999998  0.8770089999999999
  0.1302546666666664  0.5651273333333331  0.0572160000000001
  0.4318300000000000  0.5681699999999998  0.8770089999999999
  0.4348726666666668  0.5651273333333331  0.0572160000000001
  0.4318300000000002  0.8636600000000004  0.8770089999999999
  0.4348726666666668  0.8697453333333337  0.0572160000000001
  0.1317603333333326  0.0658801666666663  0.8744463333333334
  0.3313399999999995  0.1656699999999997  0.8639426666666667
  0.5330613333333331  0.2665306666666664  0.8581846666666667
  0.1349813333333328  0.0674906666666664  0.0548166666666666
  0.3351439999999993  0.1675719999999996  0.0443363333333333
  0.5334666666666662  0.2667333333333330  0.0385166666666668
  0.9341198333333338  0.0658801666666664  0.8744463333333334
  0.8343300000000002  0.1656699999999998  0.8639426666666667
  0.7334693333333335  0.2665306666666666  0.8581846666666667
  0.9325093333333336  0.0674906666666664  0.0548166666666666
  0.8324280000000004  0.1675719999999997  0.0443363333333333
  0.7332666666666670  0.2667333333333331  0.0385166666666668
  0.9341198333333336  0.8682396666666674  0.8744463333333334
  0.8343300000000002  0.6686600000000005  0.8639426666666667
  0.7334693333333333  0.4669386666666669  0.8581846666666667
  0.9325093333333336  0.8650186666666673  0.0548166666666666
  0.8324280000000003  0.6648560000000008  0.0443363333333333
  0.7332666666666667  0.4665333333333338  0.0385166666666668
  0.3333333333333334  0.6666666666666667  0.8852239999999997
  0.3333333333333334  0.6666666666666667  0.0656490000000002
  0.0666429999999996  0.8333040000000005  0.9635503333333331
  0.0666623333333329  0.7333168333333336  0.9619483333333333
  0.0666498333333330  0.6333348333333334  0.9617270000000000
  0.1666476666666666  0.7333090000000004  0.9675629999999996
  0.1666268333333329  0.6333191666666668  0.9695953333333336
  0.1667179999999993  0.1333606666666664  0.9631910000000004
  0.2666521666666660  0.2333441666666663  0.9587966666666665
  0.3666376666666663  0.3333426666666668  0.9561066666666665
  0.3665639999999991  0.2332786666666662  0.9527413333333332
  0.4666019999999998  0.4333823333333333  0.9550113333333334
  0.4665706666666664  0.3333393333333334  0.9502136666666667
  0.5666018333333327  0.3333506666666664  0.9483706666666667
  0.1666959999999995  0.2333389999999992  0.9635503333333331
  0.2666831666666665  0.3333454999999993  0.9619483333333334
  0.3666651666666666  0.4333149999999996  0.9617270000000001
  0.2666909999999996  0.4333386666666662  0.9675629999999997
  0.3666808333333332  0.5333076666666662  0.9695953333333336
  0.8666393333333335  0.0333573333333329  0.9631910000000004
  0.7666558333333338  0.0333079999999997  0.9587966666666666
  0.6666573333333332  0.0332949999999995  0.9561066666666667
  0.7667213333333338  0.1332853333333329  0.9527413333333333
  0.5666176666666666  0.0332196666666664  0.9550113333333335
  0.6666606666666666  0.1332313333333330  0.9502136666666668
  0.6666493333333334  0.2332511666666663  0.9483706666666668
  0.7666610000000010  0.9333570000000005  0.9635503333333331
  0.6666545000000007  0.9333376666666671  0.9619483333333333
  0.5666850000000005  0.9333501666666673  0.9617270000000000
  0.5666613333333339  0.8333523333333334  0.9675629999999997
  0.4666923333333338  0.8333731666666672  0.9695953333333337
  0.9666426666666671  0.8332820000000007  0.9631910000000004
  0.9666920000000003  0.7333478333333340  0.9587966666666666
  0.9667050000000004  0.6333623333333337  0.9561066666666667
  0.8667146666666670  0.6334360000000009  0.9527413333333333
  0.9667803333333335  0.5333980000000003  0.9550113333333335
  0.8667686666666670  0.5334293333333335  0.9502136666666670
  0.7667488333333337  0.4333981666666673  0.9483706666666669
  0.1666959999999995  0.9333570000000004  0.9635503333333333
  0.2666831666666665  0.9333376666666671  0.9619483333333335
  0.3666651666666666  0.9333501666666670  0.9617270000000002
  0.2666909999999996  0.8333523333333334  0.9675629999999998
  0.3666808333333332  0.8333731666666671  0.9695953333333338
  0.8666393333333335  0.8332820000000007  0.9631910000000004
  0.7666558333333338  0.7333478333333340  0.9587966666666666
  0.6666573333333332  0.6333623333333336  0.9561066666666668
  0.7667213333333338  0.6334360000000008  0.9527413333333334
  0.5666176666666666  0.5333980000000000  0.9550113333333337
  0.6666606666666666  0.5334293333333335  0.9502136666666670
  0.6666493333333334  0.4333981666666672  0.9483706666666669
  0.7666610000000010  0.8333040000000006  0.9635503333333332
  0.6666545000000007  0.7333168333333336  0.9619483333333335
  0.5666850000000005  0.6333348333333335  0.9617270000000002
  0.5666613333333339  0.7333090000000005  0.9675629999999998
  0.4666923333333338  0.6333191666666668  0.9695953333333337
  0.9666426666666671  0.1333606666666664  0.9631910000000004
  0.9666920000000003  0.2333441666666663  0.9587966666666666
  0.9667050000000004  0.3333426666666667  0.9561066666666667
  0.8667146666666670  0.2332786666666662  0.9527413333333333
  0.9667803333333335  0.4333823333333334  0.9550113333333335
  0.8667686666666670  0.3333393333333332  0.9502136666666668
  0.7667488333333337  0.3333506666666663  0.9483706666666668
  0.0666429999999996  0.2333389999999992  0.9635503333333333
  0.0666623333333329  0.3333454999999994  0.9619483333333335
  0.0666498333333330  0.4333149999999996  0.9617270000000001
  0.1666476666666666  0.4333386666666662  0.9675629999999997
  0.1666268333333329  0.5333076666666662  0.9695953333333337
  0.1667179999999993  0.0333573333333329  0.9631910000000004
  0.2666521666666660  0.0333079999999997  0.9587966666666666
  0.3666376666666663  0.0332949999999996  0.9561066666666667
  0.3665639999999991  0.1332853333333330  0.9527413333333332
  0.4666019999999998  0.0332196666666665  0.9550113333333334
  0.4665706666666664  0.1332313333333331  0.9502136666666667
  0.5666018333333327  0.2332511666666664  0.9483706666666667
  0.0666743333333329  0.9333256666666675  0.9660830000000000
  0.1666669999999997  0.8333330000000003  0.9650096666666667
  0.2666580000000000  0.7333420000000003  0.9729706666666663
  0.5666043333333330  0.4333956666666668  0.9500279999999999
  0.0666743333333326  0.1333486666666656  0.9660829999999999
  0.1666669999999997  0.3333339999999995  0.9650096666666665
  0.2666579999999998  0.5333159999999997  0.9729706666666662
  0.5666043333333330  0.1332086666666661  0.9500279999999999
  0.8666513333333344  0.9333256666666671  0.9660829999999998
  0.6666660000000006  0.8333330000000004  0.9650096666666664
  0.4666840000000002  0.7333419999999999  0.9729706666666663
  0.8667913333333338  0.4333956666666670  0.9500280000000000
  0.0666966666666664  0.5333483333333332  0.9619283333333329
  0.2666420000000002  0.6333210000000001  0.9751499999999995
  0.4666516666666667  0.5333483333333331  0.9619283333333329
  0.3666790000000000  0.6333210000000000  0.9751499999999996
  0.4666516666666668  0.9333033333333336  0.9619283333333331
  0.3666789999999999  0.7333580000000000  0.9751499999999996
  0.0667039999999990  0.0333519999999995  0.9673219999999997
  0.2666093333333327  0.1333046666666663  0.9573523333333330
  0.4665199999999993  0.2332599999999996  0.9485830000000000
  0.9666480000000005  0.0333519999999996  0.9673219999999997
  0.8666953333333337  0.1333046666666664  0.9573523333333330
  0.7667400000000004  0.2332599999999998  0.9485830000000001
  0.9666480000000004  0.9332960000000010  0.9673219999999997
  0.8666953333333336  0.7333906666666673  0.9573523333333330
  0.7667400000000002  0.5334800000000006  0.9485830000000002
  0.6666666666666669  0.3333333333333334  0.9485919999999999
